p td 22 219
2 1
3 2
4 1
4 2
4 3
5 4
5 3
5 1
5 2
6 5
6 2
6 1
6 3
6 4
7 3
7 6
7 2
7 4
7 1
7 5
8 3
8 6
8 7
8 5
8 4
8 2
8 1
9 1
9 4
9 6
9 7
9 8
9 5
9 3
9 2
10 4
10 1
10 6
10 9
10 7
10 5
10 2
10 8
10 3
11 10
11 9
11 5
11 4
11 2
11 7
11 3
11 8
11 1
11 6
12 10
12 11
12 8
12 1
12 7
12 4
12 3
12 2
12 6
13 4
13 6
13 9
13 7
13 3
13 5
13 10
13 12
13 1
13 2
13 8
14 13
14 2
14 3
14 11
14 1
14 9
14 4
14 12
14 5
14 7
14 6
14 10
15 5
15 10
15 7
15 8
15 6
15 2
15 4
15 13
15 3
15 1
15 14
15 11
15 9
15 12
16 11
16 1
16 15
16 3
16 10
16 7
16 8
16 4
16 13
16 6
16 9
16 14
16 5
16 2
16 12
17 12
17 8
17 15
17 1
17 13
17 6
17 14
17 5
17 3
17 16
17 9
17 7
17 4
17 11
17 10
18 6
18 12
18 3
18 4
18 9
18 16
18 15
18 11
18 13
18 17
18 10
18 14
18 1
18 2
18 8
18 7
18 5
19 7
19 5
19 10
19 12
19 4
19 6
19 13
19 8
19 17
19 15
19 2
19 16
19 3
19 9
19 18
19 11
19 1
20 7
20 4
20 5
20 19
20 12
20 2
20 15
20 13
20 9
20 1
20 14
20 8
20 6
20 11
20 10
20 3
21 8
21 15
21 1
21 4
21 10
21 11
21 12
21 2
21 9
21 19
21 6
21 14
21 20
21 7
21 17
21 16
21 3
21 18
21 5
21 13
22 15
22 10
22 5
22 8
22 18
22 13
22 3
22 16
22 21
22 20
22 7
22 6
22 19
22 14
22 4
22 17
22 2
22 11
22 12
